graph_generation/data/sat/tcsp/hexagonal_lattice_N_9_task_random.txt
198 225 1 198 12
1 2 1
1 20 14
2 3 6
3 4 11
3 22 8
4 5 14
5 24 4
6 7 16
7 8 9
8 9 18
9 10 1
9 28 4
10 11 8
11 12 9
11 30 13
13 32 2
14 15 2
15 16 15
16 17 9
17 36 14
18 19 14
19 38 13
20 21 9
21 41 16
22 23 7
23 24 18
23 43 5
24 25 13
25 26 10
25 45 17
26 27 7
27 28 15
27 47 11
28 29 11
29 30 11
29 49 14
30 31 3
31 32 19
31 51 18
32 33 8
33 53 6
34 35 12
35 36 3
35 55 19
37 38 18
37 57 3
38 39 7
39 59 10
40 41 1
40 60 16
41 42 1
42 43 18
42 62 1
43 44 1
44 45 4
45 46 4
46 47 9
46 66 6
48 49 9
48 68 16
49 50 7
50 51 1
51 52 13
52 72 11
54 55 17
54 74 18
55 56 2
56 57 1
56 76 13
57 58 9
58 59 4
58 78 19
60 61 1
61 62 2
61 81 19
62 63 5
63 64 9
63 83 2
65 85 8
66 67 14
67 68 17
67 87 2
68 69 11
69 70 5
70 71 14
71 72 16
72 73 4
73 74 10
75 95 12
76 77 3
77 78 4
77 97 19
78 79 15
79 99 16
80 81 5
80 100 6
81 82 6
82 83 10
83 84 6
84 85 18
85 86 1
86 87 5
88 89 14
88 108 3
89 90 5
90 91 14
90 110 5
92 93 9
92 112 3
93 94 13
94 114 6
95 96 14
96 116 18
97 98 3
98 99 10
98 118 4
100 101 17
101 102 11
103 104 9
103 123 2
105 106 3
106 107 14
107 108 9
107 127 5
108 109 1
109 110 8
109 129 7
110 111 6
111 112 5
111 131 15
112 113 1
113 114 12
113 133 10
114 115 16
115 116 8
115 135 14
116 117 15
117 118 15
118 119 8
120 121 5
120 140 9
121 122 17
122 123 3
122 142 2
123 124 12
124 144 6
125 126 13
126 127 8
127 128 5
128 148 5
129 130 2
130 131 10
130 150 12
131 132 16
132 133 18
132 152 10
133 134 1
134 135 15
135 136 16
136 137 7
136 156 9
137 138 12
138 139 9
138 158 18
140 141 3
143 144 6
143 163 3
144 145 12
145 146 10
145 165 2
147 167 16
148 149 7
149 150 17
150 151 1
151 152 2
151 171 17
153 154 6
154 155 4
155 156 12
155 175 2
156 157 13
157 158 12
157 177 15
158 159 10
159 179 13
160 161 14
160 180 6
161 162 8
162 163 14
162 182 4
163 164 11
164 165 17
164 184 18
165 166 14
166 167 3
166 186 16
167 168 11
168 169 4
168 188 11
169 170 7
170 171 18
170 190 10
171 172 2
172 192 1
173 174 3
174 175 1
174 194 6
176 177 1
176 196 1
178 179 19
178 198 12
181 182 13
182 183 8
183 184 9
184 185 2
186 187 10
187 188 17
189 190 10
190 191 9
191 192 9
193 194 6
194 195 18
195 196 6
196 197 19
197 198 7
42
44
59
61
85
113
124
133
136
140
156
190
